8 28 4
0 1 3.00
0 2 24.00
0 3 3.00
0 4 2.00
0 5 2.00
0 6 24.00
0 7 2.00
1 2 3.00
1 3 24.00
1 4 2.00
1 5 2.00
1 6 2.00
1 7 24.00
2 3 3.00
2 4 24.00
2 5 2.00
2 6 2.00
2 7 2.00
3 4 2.00
3 5 24.00
3 6 2.00
3 7 2.00
4 5 1.00
4 6 24.00
4 7 1.00
5 6 1.00
5 7 24.00
6 7 1.00
0
1
2
3
